12
1 4
2 9
3 4
4 5
5 6
6 10
7 7
8 10
9 4
10 10
11 1
37
0 1 82
1 0 82
0 2 6
2 0 6
0 3 69
3 0 69
0 4 68
4 0 68
0 5 4
5 0 4
0 6 11
6 0 11
0 7 78
7 0 78
0 8 6
8 0 6
0 9 44
9 0 44
0 10 58
10 0 58
0 11 99
11 0 99
1 9 65
1 11 35
2 4 33
3 5 8
3 11 67
4 8 50
4 10 70
5 8 67
5 9 31
5 10 27
5 11 62
7 8 91
7 9 12
7 10 81
7 11 26
